p cnf 12 50 
3 -8 -10 0
9 2 10 0
-12 -4 -1 0
11 9 12 0
-2 -6 7 0
-3 -11 -10 0
3 2 6 0
-11 -10 -12 0
2 9 -8 0
-11 -10 -5 0
6 -12 -4 0
5 2 -3 0
-7 -3 12 0
2 3 -1 0
-5 12 2 0
1 -2 4 0
2 7 -9 0
8 2 -3 0
9 -10 7 0
-3 -11 -5 0
-9 -2 -3 0
-1 3 2 0
12 -3 5 0
-11 3 9 0
10 -11 -2 0
5 -6 -3 0
-5 12 11 0
-12 -7 -3 0
-11 -10 12 0
-10 -4 12 0
3 -12 11 0
-12 -10 7 0
-4 -3 10 0
-11 8 -7 0
-2 3 7 0
4 -10 11 0
-4 6 10 0
7 9 12 0
8 -6 3 0
-9 -2 -1 0
-10 -6 -4 0
8 1 -9 0
-3 -6 -11 0
-9 -12 7 0
7 -9 -12 0
-8 -12 -11 0
4 11 12 0
10 -9 8 0
4 10 1 0
8 9 -7 0
